Route 1: 0 27 89 25 80 4 85 0
Route 2: 0 47 75 100 72 58 35 20 0
Route 3: 0 52 36 46 39 60 61 38 0
Route 4: 0 82 53 90 87 28 12 66 34 37 97 55 0
Route 5: 0 73 64 17 86 84 91 0
Route 6: 0 33 11 14 92 18 67 94 0
Route 7: 0 21 74 6 51 2 57 81 23 22 0
Route 8: 0 13 5 77 62 42 95 3 30 59 48 16 7 0
Route 9: 0 63 69 19 98 40 99 45 76 71 78 0
Route 10: 0 26 31 83 65 9 29 93 0
Route 11: 0 96 8 10 1 54 43 68 56 32 50 0
Route 12: 0 70 24 44 88 41 15 49 79 0
